49	12	4	41	
10	10	10	10

0	0	0	0	0	0	3	1	2	3
1	0	9	3	2	2	2	4	6
2	0	9	10	9	9	3	5	6	7
3	10	0	6	5	7	3	5	6	7
4	0	2	0	0	8	2	5	7
5	0	4	8	0	2	3	8	9	10
6	3	7	9	7	1	3	8	9	10
7	1	0	3	1	2	3	8	9	10
8	2	8	8	1	6	1	11
9	2	6	3	10	3	1	11
10	0	9	6	2	9	1	11
11	0	0	0	0	0	0
